benchmarks_CP/INST_64x64/50/inst64x64_50_32.dzn
S=8;
start=[|
16,	15,	-1,	-1,	43,	-1,	-1,	9,	-1,	46,	-1,	-1,	-1,	-1,	8,	-1,	-1,	51,	-1,	64,	5,	32,	57,	-1,	-1,	10,	-1,	-1,	-1,	-1,	-1,	60,	61,	31,	6,	13,	62,	-1,	59,	-1,	-1,	47,	-1,	53,	-1,	-1,	-1,	24,	48,	29,	-1,	-1,	-1,	-1,	49,	-1,	28,	-1,	39,	34,	-1,	19,	-1,	35|
-1,	57,	-1,	-1,	-1,	-1,	-1,	35,	-1,	-1,	3,	-1,	29,	-1,	11,	-1,	-1,	-1,	-1,	-1,	-1,	-1,	-1,	-1,	58,	1,	-1,	27,	56,	-1,	-1,	-1,	16,	-1,	-1,	48,	-1,	45,	-1,	46,	-1,	51,	52,	-1,	-1,	-1,	-1,	-1,	31,	18,	19,	-1,	-1,	-1,	6,	-1,	55,	59,	21,	-1,	43,	-1,	-1,	53|
-1,	-1,	45,	-1,	-1,	53,	-1,	-1,	19,	47,	26,	-1,	-1,	-1,	-1,	-1,	-1,	-1,	30,	-1,	18,	27,	-1,	-1,	2,	-1,	32,	13,	-1,	33,	-1,	59,	50,	37,	42,	-1,	-1,	10,	-1,	-1,	58,	48,	-1,	-1,	-1,	23,	56,	-1,	-1,	-1,	20,	61,	57,	-1,	38,	-1,	1,	-1,	-1,	29,	-1,	-1,	-1,	24|
-1,	48,	24,	27,	22,	-1,	52,	-1,	59,	-1,	34,	63,	14,	50,	-1,	43,	26,	-1,	38,	-1,	-1,	31,	36,	-1,	-1,	-1,	-1,	11,	-1,	-1,	-1,	-1,	29,	8,	-1,	-1,	21,	23,	-1,	4,	-1,	-1,	55,	-1,	64,	-1,	-1,	40,	47,	30,	-1,	60,	7,	-1,	37,	-1,	-1,	-1,	5,	-1,	-1,	-1,	-1,	46|
50,	26,	61,	-1,	-1,	-1,	13,	-1,	-1,	-1,	42,	-1,	56,	-1,	-1,	4,	-1,	-1,	-1,	41,	46,	1,	43,	-1,	12,	-1,	24,	35,	-1,	39,	63,	62,	64,	27,	15,	17,	55,	51,	-1,	38,	5,	-1,	-1,	34,	-1,	-1,	16,	29,	22,	-1,	-1,	33,	10,	59,	-1,	36,	54,	-1,	37,	23,	-1,	3,	-1,	44|
29,	38,	-1,	19,	54,	42,	20,	58,	-1,	17,	5,	35,	48,	-1,	-1,	15,	-1,	59,	-1,	-1,	50,	24,	-1,	-1,	-1,	-1,	-1,	3,	6,	37,	46,	-1,	-1,	1,	-1,	18,	-1,	14,	60,	57,	-1,	-1,	-1,	-1,	27,	-1,	62,	-1,	-1,	-1,	56,	52,	51,	-1,	25,	-1,	-1,	26,	-1,	-1,	64,	-1,	36,	30|
64,	28,	-1,	-1,	-1,	-1,	59,	-1,	54,	7,	62,	30,	9,	-1,	33,	-1,	-1,	-1,	11,	47,	-1,	23,	55,	21,	-1,	-1,	48,	29,	44,	-1,	57,	-1,	-1,	19,	25,	-1,	58,	-1,	22,	20,	-1,	-1,	-1,	-1,	-1,	36,	-1,	31,	-1,	-1,	-1,	-1,	39,	-1,	-1,	15,	-1,	10,	-1,	-1,	-1,	27,	-1,	-1|
-1,	30,	62,	-1,	7,	4,	-1,	-1,	-1,	12,	57,	-1,	20,	-1,	-1,	49,	33,	60,	37,	29,	-1,	14,	-1,	-1,	38,	-1,	-1,	8,	5,	-1,	47,	-1,	53,	63,	-1,	36,	-1,	3,	-1,	-1,	-1,	-1,	-1,	-1,	17,	44,	-1,	45,	34,	-1,	26,	55,	46,	-1,	27,	-1,	31,	42,	58,	-1,	-1,	56,	51,	-1|
-1,	45,	9,	-1,	-1,	11,	-1,	-1,	16,	55,	-1,	-1,	17,	-1,	-1,	3,	48,	56,	33,	63,	-1,	8,	-1,	-1,	-1,	12,	10,	46,	-1,	6,	23,	-1,	-1,	22,	29,	-1,	1,	15,	43,	35,	-1,	-1,	-1,	24,	59,	-1,	42,	-1,	-1,	-1,	-1,	36,	-1,	5,	-1,	21,	-1,	-1,	-1,	-1,	-1,	61,	52,	-1|
38,	18,	56,	7,	33,	-1,	29,	28,	22,	-1,	9,	-1,	41,	-1,	49,	-1,	-1,	31,	-1,	17,	26,	36,	-1,	46,	59,	16,	62,	-1,	-1,	53,	-1,	-1,	52,	54,	-1,	21,	-1,	-1,	-1,	-1,	-1,	-1,	-1,	-1,	47,	-1,	-1,	13,	11,	63,	-1,	6,	-1,	45,	-1,	-1,	57,	-1,	23,	10,	15,	-1,	-1,	3|
47,	-1,	-1,	48,	-1,	22,	-1,	26,	-1,	40,	-1,	-1,	46,	-1,	-1,	2,	58,	-1,	57,	44,	7,	-1,	51,	-1,	29,	38,	36,	25,	-1,	43,	18,	-1,	60,	49,	-1,	-1,	10,	-1,	53,	55,	16,	-1,	-1,	9,	54,	-1,	-1,	-1,	17,	19,	31,	15,	-1,	52,	30,	-1,	-1,	-1,	45,	-1,	-1,	-1,	5,	59|
21,	14,	-1,	4,	62,	-1,	-1,	-1,	37,	63,	31,	53,	43,	-1,	-1,	-1,	3,	35,	52,	24,	60,	10,	-1,	49,	11,	-1,	-1,	34,	-1,	9,	39,	55,	-1,	-1,	17,	33,	-1,	-1,	-1,	58,	48,	25,	-1,	12,	-1,	61,	-1,	-1,	28,	-1,	-1,	-1,	64,	20,	-1,	56,	44,	50,	-1,	-1,	-1,	-1,	38,	-1|
15,	-1,	-1,	43,	-1,	54,	42,	40,	-1,	62,	-1,	-1,	-1,	-1,	-1,	-1,	34,	-1,	18,	-1,	-1,	-1,	-1,	23,	31,	3,	8,	-1,	13,	14,	-1,	-1,	5,	12,	-1,	44,	41,	-1,	-1,	-1,	-1,	-1,	-1,	-1,	46,	35,	36,	-1,	-1,	53,	-1,	-1,	-1,	10,	32,	-1,	30,	16,	-1,	-1,	-1,	33,	-1,	28|
-1,	50,	-1,	31,	27,	61,	-1,	49,	58,	-1,	36,	-1,	42,	35,	48,	-1,	-1,	-1,	59,	43,	-1,	21,	25,	19,	41,	52,	47,	-1,	33,	20,	-1,	63,	14,	-1,	11,	30,	-1,	-1,	62,	8,	-1,	-1,	5,	-1,	-1,	-1,	-1,	-1,	-1,	-1,	34,	-1,	-1,	-1,	16,	26,	64,	17,	-1,	9,	55,	-1,	32,	12|
-1,	59,	10,	-1,	55,	-1,	-1,	12,	-1,	-1,	-1,	19,	-1,	30,	44,	57,	-1,	-1,	28,	1,	27,	-1,	32,	11,	5,	2,	21,	40,	-1,	61,	60,	48,	9,	-1,	46,	-1,	-1,	20,	18,	-1,	-1,	31,	-1,	-1,	-1,	-1,	-1,	38,	-1,	-1,	-1,	-1,	-1,	-1,	41,	-1,	42,	-1,	14,	-1,	-1,	-1,	13,	39|
13,	25,	-1,	60,	46,	-1,	3,	32,	8,	24,	59,	14,	-1,	-1,	-1,	11,	5,	-1,	-1,	-1,	-1,	61,	30,	16,	17,	-1,	45,	54,	7,	-1,	-1,	49,	-1,	-1,	-1,	38,	-1,	-1,	23,	-1,	-1,	62,	20,	-1,	-1,	64,	-1,	-1,	-1,	-1,	47,	9,	-1,	27,	-1,	-1,	-1,	-1,	63,	-1,	48,	-1,	-1,	-1|
30,	-1,	22,	62,	-1,	-1,	-1,	-1,	-1,	-1,	-1,	-1,	12,	-1,	50,	-1,	-1,	-1,	26,	3,	-1,	-1,	60,	-1,	21,	34,	-1,	31,	-1,	15,	-1,	27,	63,	-1,	57,	-1,	13,	-1,	17,	25,	64,	42,	-1,	-1,	-1,	-1,	-1,	23,	53,	-1,	-1,	40,	11,	-1,	-1,	32,	2,	-1,	59,	-1,	47,	-1,	46,	7|
-1,	44,	-1,	58,	8,	31,	-1,	-1,	13,	21,	61,	-1,	-1,	19,	43,	-1,	11,	57,	4,	28,	-1,	45,	-1,	-1,	-1,	-1,	55,	48,	32,	-1,	50,	10,	3,	47,	-1,	-1,	-1,	36,	-1,	-1,	-1,	-1,	-1,	6,	-1,	-1,	-1,	27,	-1,	-1,	41,	-1,	25,	-1,	34,	-1,	49,	-1,	-1,	20,	-1,	9,	-1,	38|
40,	-1,	-1,	1,	-1,	-1,	-1,	15,	-1,	44,	10,	-1,	33,	-1,	-1,	-1,	-1,	-1,	-1,	-1,	-1,	-1,	-1,	50,	-1,	-1,	-1,	-1,	-1,	41,	-1,	37,	24,	28,	18,	56,	64,	8,	-1,	-1,	34,	-1,	-1,	-1,	-1,	13,	-1,	-1,	19,	62,	7,	54,	49,	-1,	-1,	52,	-1,	3,	42,	39,	-1,	-1,	-1,	60|
-1,	42,	-1,	41,	38,	16,	-1,	-1,	-1,	-1,	51,	54,	11,	-1,	26,	-1,	8,	17,	-1,	-1,	-1,	-1,	47,	-1,	-1,	24,	-1,	28,	-1,	-1,	9,	-1,	27,	55,	5,	-1,	30,	32,	-1,	-1,	-1,	-1,	40,	58,	-1,	-1,	-1,	-1,	21,	-1,	29,	-1,	35,	39,	-1,	23,	-1,	-1,	57,	31,	36,	62,	1,	-1|
37,	-1,	-1,	54,	21,	-1,	57,	24,	-1,	41,	-1,	-1,	30,	59,	28,	7,	64,	61,	42,	12,	16,	49,	-1,	-1,	46,	22,	-1,	-1,	-1,	47,	8,	-1,	-1,	-1,	14,	34,	23,	40,	-1,	43,	-1,	-1,	39,	32,	44,	60,	5,	11,	-1,	-1,	3,	4,	-1,	-1,	31,	-1,	-1,	-1,	19,	-1,	50,	-1,	-1,	-1|
-1,	46,	53,	-1,	-1,	-1,	-1,	-1,	36,	39,	-1,	3,	-1,	-1,	-1,	34,	62,	-1,	1,	58,	25,	-1,	-1,	37,	-1,	43,	23,	57,	52,	30,	-1,	-1,	-1,	-1,	-1,	-1,	-1,	-1,	6,	-1,	47,	-1,	33,	41,	-1,	49,	24,	21,	14,	-1,	12,	8,	50,	60,	-1,	17,	-1,	64,	51,	-1,	-1,	-1,	-1,	5|
34,	-1,	-1,	61,	-1,	26,	-1,	-1,	38,	-1,	29,	-1,	-1,	-1,	16,	-1,	6,	54,	13,	7,	-1,	-1,	39,	32,	-1,	-1,	-1,	19,	-1,	1,	35,	3,	46,	11,	49,	-1,	53,	50,	-1,	-1,	-1,	-1,	10,	-1,	31,	8,	-1,	17,	30,	55,	48,	58,	27,	28,	43,	-1,	-1,	15,	33,	24,	-1,	40,	21,	-1|
-1,	2,	-1,	50,	64,	28,	11,	25,	53,	-1,	-1,	62,	-1,	-1,	-1,	-1,	55,	24,	56,	20,	-1,	34,	-1,	18,	-1,	-1,	-1,	14,	39,	-1,	38,	-1,	1,	52,	60,	-1,	31,	-1,	-1,	21,	30,	45,	48,	-1,	51,	26,	-1,	63,	61,	-1,	-1,	5,	44,	42,	-1,	57,	-1,	-1,	-1,	17,	-1,	16,	-1,	27|
5,	-1,	26,	-1,	-1,	-1,	37,	-1,	12,	56,	-1,	44,	-1,	-1,	-1,	-1,	-1,	18,	-1,	-1,	15,	50,	17,	-1,	-1,	-1,	-1,	-1,	-1,	-1,	14,	19,	-1,	-1,	45,	40,	54,	-1,	-1,	-1,	42,	-1,	-1,	30,	49,	-1,	-1,	25,	-1,	32,	8,	46,	9,	-1,	47,	6,	-1,	31,	-1,	-1,	20,	-1,	55,	-1|
-1,	60,	-1,	-1,	53,	-1,	36,	42,	-1,	34,	-1,	40,	38,	-1,	-1,	-1,	-1,	-1,	6,	-1,	35,	33,	5,	-1,	64,	25,	-1,	52,	-1,	-1,	-1,	54,	-1,	16,	62,	11,	-1,	-1,	-1,	9,	45,	12,	-1,	-1,	-1,	-1,	-1,	-1,	-1,	-1,	22,	20,	15,	-1,	-1,	4,	32,	-1,	30,	-1,	-1,	44,	-1,	19|
-1,	-1,	4,	-1,	3,	32,	-1,	18,	24,	30,	53,	33,	27,	-1,	-1,	-1,	-1,	-1,	-1,	49,	-1,	-1,	16,	58,	-1,	51,	28,	-1,	42,	26,	-1,	-1,	39,	38,	-1,	12,	63,	17,	41,	-1,	-1,	46,	64,	35,	52,	-1,	-1,	-1,	-1,	-1,	50,	-1,	55,	-1,	7,	-1,	-1,	1,	9,	-1,	-1,	5,	-1,	45|
7,	-1,	50,	-1,	24,	-1,	46,	-1,	-1,	26,	14,	59,	-1,	-1,	32,	-1,	-1,	-1,	47,	13,	30,	-1,	-1,	22,	35,	-1,	2,	61,	3,	-1,	-1,	39,	-1,	-1,	-1,	10,	19,	58,	21,	-1,	38,	44,	-1,	40,	48,	-1,	43,	-1,	-1,	52,	-1,	57,	-1,	-1,	-1,	-1,	15,	34,	62,	-1,	-1,	53,	25,	-1|
-1,	-1,	-1,	40,	57,	25,	-1,	-1,	50,	-1,	-1,	55,	61,	48,	-1,	13,	-1,	-1,	39,	11,	-1,	56,	-1,	3,	30,	-1,	53,	-1,	-1,	23,	-1,	-1,	-1,	-1,	-1,	32,	36,	-1,	-1,	-1,	-1,	-1,	-1,	10,	63,	24,	-1,	37,	-1,	-1,	-1,	-1,	-1,	44,	2,	-1,	-1,	47,	-1,	-1,	-1,	-1,	42,	6|
49,	56,	39,	-1,	35,	34,	-1,	-1,	11,	-1,	41,	-1,	28,	20,	-1,	-1,	-1,	14,	-1,	-1,	21,	-1,	8,	-1,	-1,	44,	6,	17,	37,	48,	-1,	-1,	-1,	4,	22,	5,	51,	-1,	50,	-1,	3,	-1,	-1,	60,	33,	2,	55,	-1,	58,	-1,	-1,	-1,	62,	23,	-1,	30,	10,	-1,	-1,	38,	61,	-1,	-1,	26|
43,	31,	17,	-1,	-1,	-1,	-1,	8,	3,	57,	-1,	52,	5,	-1,	25,	-1,	-1,	45,	-1,	51,	64,	-1,	-1,	-1,	-1,	-1,	-1,	18,	29,	32,	34,	-1,	-1,	-1,	37,	-1,	6,	-1,	2,	-1,	9,	-1,	54,	4,	-1,	-1,	-1,	-1,	-1,	28,	-1,	10,	33,	-1,	-1,	-1,	24,	-1,	49,	-1,	35,	48,	-1,	22|
-1,	-1,	27,	-1,	6,	-1,	22,	-1,	-1,	-1,	-1,	45,	-1,	-1,	-1,	9,	-1,	52,	-1,	-1,	-1,	48,	23,	-1,	36,	-1,	50,	4,	-1,	-1,	33,	16,	-1,	-1,	-1,	-1,	-1,	44,	34,	-1,	-1,	-1,	56,	-1,	-1,	29,	51,	-1,	-1,	-1,	13,	24,	14,	35,	12,	-1,	-1,	41,	-1,	3,	17,	7,	39,	43|
36,	-1,	32,	-1,	15,	-1,	4,	-1,	17,	14,	-1,	34,	40,	-1,	39,	-1,	18,	33,	5,	-1,	47,	62,	-1,	60,	-1,	-1,	44,	55,	45,	21,	-1,	-1,	11,	7,	-1,	-1,	-1,	59,	19,	16,	-1,	-1,	-1,	31,	-1,	-1,	64,	-1,	2,	23,	-1,	13,	-1,	46,	-1,	1,	-1,	-1,	-1,	54,	-1,	38,	10,	-1|
24,	-1,	33,	-1,	1,	30,	-1,	-1,	-1,	51,	11,	-1,	-1,	-1,	42,	32,	-1,	-1,	54,	-1,	-1,	-1,	46,	-1,	-1,	-1,	5,	26,	-1,	36,	15,	-1,	-1,	44,	-1,	-1,	18,	27,	-1,	-1,	14,	-1,	53,	13,	-1,	16,	-1,	9,	-1,	-1,	-1,	-1,	6,	-1,	60,	-1,	-1,	19,	-1,	-1,	-1,	-1,	4,	62|
-1,	-1,	-1,	49,	-1,	62,	-1,	38,	27,	43,	19,	-1,	-1,	-1,	20,	-1,	-1,	23,	25,	-1,	36,	-1,	44,	1,	53,	-1,	-1,	-1,	-1,	64,	-1,	4,	33,	6,	47,	-1,	56,	-1,	39,	-1,	15,	-1,	7,	22,	40,	59,	48,	26,	35,	-1,	63,	-1,	18,	32,	55,	-1,	8,	-1,	13,	-1,	-1,	29,	-1,	50|
26,	63,	20,	55,	10,	50,	8,	14,	33,	-1,	-1,	-1,	23,	-1,	53,	45,	19,	-1,	-1,	-1,	9,	6,	64,	-1,	39,	-1,	51,	12,	-1,	29,	13,	34,	30,	40,	21,	46,	57,	25,	24,	-1,	-1,	-1,	1,	-1,	-1,	-1,	60,	-1,	38,	-1,	-1,	-1,	22,	11,	-1,	-1,	56,	44,	-1,	-1,	-1,	-1,	-1,	15|
6,	-1,	64,	37,	12,	9,	47,	27,	30,	-1,	-1,	-1,	-1,	21,	63,	-1,	38,	13,	51,	-1,	-1,	-1,	-1,	56,	1,	49,	-1,	-1,	-1,	10,	-1,	-1,	22,	60,	54,	8,	-1,	62,	-1,	-1,	-1,	4,	50,	-1,	-1,	5,	46,	44,	-1,	-1,	-1,	-1,	-1,	-1,	-1,	-1,	3,	43,	53,	52,	26,	-1,	-1,	42|
-1,	-1,	19,	2,	40,	-1,	39,	43,	-1,	1,	24,	60,	-1,	-1,	-1,	61,	-1,	-1,	-1,	50,	53,	-1,	-1,	57,	9,	-1,	-1,	38,	-1,	-1,	-1,	46,	-1,	13,	20,	3,	42,	-1,	10,	-1,	6,	11,	-1,	-1,	62,	30,	-1,	-1,	12,	34,	-1,	-1,	31,	64,	4,	47,	-1,	33,	25,	59,	21,	-1,	22,	32|
-1,	53,	7,	34,	42,	-1,	60,	11,	48,	-1,	-1,	2,	-1,	-1,	22,	-1,	49,	-1,	3,	52,	-1,	26,	24,	39,	-1,	-1,	-1,	-1,	-1,	62,	59,	40,	-1,	-1,	58,	-1,	37,	4,	-1,	-1,	51,	-1,	61,	-1,	-1,	19,	-1,	-1,	-1,	-1,	28,	-1,	30,	15,	10,	43,	-1,	-1,	-1,	46,	-1,	-1,	-1,	31|
-1,	-1,	13,	29,	-1,	59,	31,	-1,	46,	-1,	-1,	-1,	7,	37,	62,	-1,	15,	-1,	-1,	-1,	-1,	-1,	-1,	55,	-1,	50,	-1,	-1,	57,	56,	-1,	25,	43,	-1,	-1,	-1,	61,	49,	1,	-1,	-1,	-1,	-1,	27,	24,	38,	58,	8,	40,	44,	-1,	42,	53,	26,	54,	-1,	-1,	-1,	48,	35,	-1,	-1,	20,	-1|
3,	-1,	-1,	9,	44,	2,	15,	62,	14,	-1,	-1,	58,	-1,	-1,	-1,	-1,	50,	43,	64,	54,	8,	-1,	1,	-1,	23,	-1,	29,	59,	-1,	4,	37,	11,	36,	-1,	-1,	27,	-1,	19,	-1,	-1,	-1,	22,	24,	5,	-1,	-1,	17,	-1,	55,	60,	-1,	26,	-1,	-1,	18,	46,	47,	-1,	20,	6,	-1,	34,	41,	-1|
-1,	32,	-1,	-1,	-1,	47,	-1,	-1,	-1,	19,	4,	-1,	-1,	-1,	-1,	28,	-1,	62,	20,	33,	-1,	-1,	-1,	27,	52,	58,	-1,	6,	-1,	-1,	-1,	44,	-1,	17,	50,	9,	60,	-1,	-1,	63,	23,	38,	45,	-1,	26,	39,	-1,	41,	42,	-1,	10,	-1,	16,	-1,	29,	14,	-1,	61,	3,	53,	59,	57,	18,	11|
1,	-1,	18,	5,	-1,	13,	-1,	64,	20,	-1,	-1,	37,	-1,	47,	-1,	-1,	25,	42,	10,	-1,	49,	-1,	9,	59,	-1,	57,	-1,	53,	-1,	-1,	51,	31,	21,	-1,	23,	4,	38,	-1,	58,	14,	29,	-1,	-1,	-1,	-1,	34,	-1,	-1,	56,	-1,	24,	27,	41,	-1,	-1,	45,	60,	28,	-1,	-1,	-1,	39,	48,	17|
17,	33,	-1,	-1,	-1,	23,	-1,	34,	57,	3,	1,	-1,	8,	-1,	64,	-1,	61,	-1,	16,	-1,	-1,	51,	-1,	-1,	-1,	36,	-1,	49,	47,	-1,	25,	-1,	40,	43,	-1,	2,	48,	26,	-1,	6,	13,	-1,	-1,	28,	21,	-1,	-1,	-1,	20,	-1,	59,	-1,	-1,	-1,	-1,	-1,	4,	45,	-1,	30,	56,	63,	-1,	14|
-1,	-1,	60,	-1,	-1,	-1,	-1,	19,	2,	13,	-1,	16,	-1,	24,	-1,	30,	31,	21,	63,	-1,	-1,	-1,	11,	-1,	3,	45,	-1,	1,	-1,	-1,	41,	26,	10,	61,	-1,	39,	46,	-1,	32,	47,	-1,	-1,	4,	-1,	57,	20,	-1,	-1,	52,	37,	54,	17,	8,	48,	-1,	34,	-1,	22,	-1,	-1,	29,	50,	-1,	-1|
46,	41,	-1,	-1,	61,	-1,	10,	-1,	42,	18,	25,	-1,	59,	-1,	-1,	21,	23,	39,	-1,	-1,	-1,	-1,	-1,	4,	62,	-1,	35,	5,	-1,	22,	19,	-1,	-1,	24,	-1,	57,	34,	11,	30,	-1,	53,	-1,	-1,	-1,	15,	3,	-1,	-1,	-1,	-1,	44,	47,	40,	-1,	33,	58,	36,	52,	1,	-1,	-1,	51,	31,	8|
63,	-1,	29,	-1,	-1,	-1,	25,	4,	9,	11,	-1,	-1,	44,	-1,	-1,	-1,	-1,	47,	-1,	-1,	-1,	17,	-1,	41,	-1,	-1,	-1,	-1,	61,	-1,	-1,	38,	-1,	-1,	-1,	62,	-1,	-1,	-1,	-1,	7,	-1,	-1,	52,	37,	-1,	-1,	36,	-1,	50,	-1,	28,	3,	-1,	-1,	-1,	-1,	-1,	-1,	-1,	19,	-1,	-1,	10|
-1,	-1,	-1,	26,	-1,	6,	30,	-1,	63,	-1,	45,	51,	-1,	31,	-1,	-1,	-1,	46,	-1,	-1,	-1,	-1,	-1,	-1,	15,	21,	-1,	-1,	-1,	18,	-1,	42,	20,	-1,	-1,	29,	-1,	-1,	28,	-1,	62,	8,	-1,	16,	-1,	9,	47,	-1,	-1,	-1,	-1,	-1,	19,	-1,	57,	-1,	-1,	-1,	7,	64,	-1,	35,	23,	-1|
62,	29,	11,	-1,	26,	-1,	-1,	-1,	-1,	-1,	-1,	4,	64,	28,	58,	-1,	9,	55,	-1,	-1,	-1,	-1,	3,	12,	13,	-1,	38,	2,	-1,	31,	-1,	41,	44,	21,	-1,	-1,	-1,	60,	-1,	19,	43,	-1,	-1,	20,	42,	46,	-1,	-1,	25,	-1,	5,	48,	37,	-1,	-1,	35,	-1,	-1,	32,	-1,	10,	24,	-1,	-1|
-1,	54,	31,	17,	-1,	27,	48,	-1,	-1,	-1,	47,	8,	-1,	-1,	-1,	53,	29,	-1,	24,	14,	59,	-1,	-1,	-1,	-1,	-1,	-1,	21,	51,	-1,	-1,	56,	12,	46,	38,	63,	-1,	-1,	20,	45,	-1,	-1,	-1,	55,	-1,	-1,	-1,	-1,	-1,	-1,	2,	-1,	13,	3,	44,	-1,	19,	-1,	-1,	-1,	-1,	-1,	-1,	-1|
-1,	-1,	-1,	12,	-1,	-1,	6,	50,	5,	52,	63,	-1,	25,	-1,	3,	59,	27,	2,	41,	-1,	-1,	47,	49,	-1,	24,	-1,	26,	58,	-1,	-1,	-1,	22,	-1,	-1,	36,	-1,	40,	-1,	-1,	30,	-1,	15,	44,	54,	-1,	-1,	-1,	51,	-1,	-1,	1,	18,	61,	34,	-1,	38,	-1,	46,	-1,	37,	-1,	-1,	7,	13|
2,	4,	-1,	-1,	-1,	-1,	1,	53,	-1,	23,	12,	21,	19,	-1,	-1,	10,	20,	-1,	45,	-1,	-1,	44,	26,	-1,	14,	-1,	-1,	-1,	-1,	52,	-1,	17,	47,	39,	24,	-1,	-1,	54,	-1,	-1,	-1,	64,	-1,	-1,	13,	40,	50,	61,	-1,	-1,	-1,	-1,	29,	-1,	58,	27,	-1,	38,	-1,	33,	-1,	55,	-1,	-1|
22,	43,	-1,	46,	-1,	-1,	19,	57,	31,	33,	54,	-1,	2,	38,	-1,	14,	-1,	-1,	-1,	61,	-1,	37,	4,	-1,	-1,	59,	-1,	-1,	12,	28,	32,	47,	58,	-1,	-1,	-1,	5,	18,	-1,	-1,	-1,	-1,	36,	8,	-1,	-1,	39,	34,	-1,	49,	-1,	56,	21,	-1,	-1,	-1,	-1,	-1,	17,	27,	-1,	42,	-1,	20|
-1,	-1,	23,	-1,	-1,	38,	49,	-1,	-1,	-1,	55,	27,	16,	46,	-1,	-1,	-1,	64,	-1,	-1,	-1,	13,	-1,	-1,	43,	-1,	1,	44,	40,	60,	29,	-1,	-1,	-1,	-1,	51,	-1,	37,	-1,	50,	35,	-1,	-1,	7,	45,	58,	59,	10,	36,	31,	52,	12,	32,	17,	19,	-1,	9,	8,	56,	21,	22,	-1,	47,	57|
-1,	-1,	40,	-1,	52,	-1,	-1,	59,	32,	49,	-1,	1,	39,	-1,	30,	44,	-1,	50,	-1,	-1,	-1,	19,	-1,	-1,	7,	-1,	9,	-1,	-1,	-1,	62,	-1,	-1,	-1,	64,	31,	17,	16,	-1,	27,	56,	-1,	22,	-1,	38,	33,	57,	47,	-1,	-1,	4,	-1,	28,	-1,	63,	24,	61,	-1,	12,	-1,	5,	-1,	3,	36|
-1,	-1,	-1,	-1,	-1,	20,	18,	-1,	26,	-1,	-1,	9,	37,	15,	24,	-1,	17,	38,	-1,	-1,	-1,	11,	58,	51,	49,	23,	27,	45,	30,	-1,	10,	-1,	-1,	-1,	59,	61,	28,	42,	-1,	-1,	41,	-1,	-1,	-1,	-1,	-1,	-1,	19,	-1,	-1,	-1,	50,	-1,	-1,	-1,	-1,	-1,	-1,	-1,	-1,	53,	52,	-1,	4|
35,	-1,	55,	-1,	47,	64,	43,	-1,	29,	8,	50,	57,	-1,	33,	5,	-1,	-1,	-1,	-1,	-1,	-1,	54,	-1,	-1,	10,	27,	-1,	20,	-1,	-1,	3,	51,	62,	-1,	12,	58,	14,	-1,	36,	61,	-1,	-1,	-1,	-1,	-1,	6,	-1,	48,	15,	21,	-1,	-1,	-1,	4,	28,	-1,	7,	49,	-1,	22,	13,	-1,	-1,	-1|
-1,	-1,	14,	63,	48,	29,	-1,	-1,	-1,	37,	44,	-1,	34,	55,	-1,	-1,	-1,	7,	-1,	-1,	-1,	53,	-1,	-1,	60,	42,	-1,	32,	-1,	-1,	40,	8,	4,	-1,	-1,	-1,	3,	-1,	26,	-1,	-1,	-1,	13,	-1,	-1,	-1,	33,	2,	5,	1,	35,	-1,	56,	38,	9,	16,	-1,	-1,	-1,	-1,	12,	-1,	-1,	41|
61,	-1,	-1,	-1,	-1,	-1,	58,	-1,	-1,	25,	-1,	-1,	32,	-1,	12,	-1,	13,	6,	9,	-1,	-1,	-1,	14,	-1,	-1,	-1,	31,	41,	-1,	-1,	30,	53,	-1,	15,	-1,	22,	50,	29,	-1,	39,	-1,	23,	-1,	-1,	-1,	47,	28,	-1,	-1,	17,	-1,	43,	-1,	-1,	-1,	-1,	38,	5,	-1,	4,	57,	-1,	-1,	-1|
-1,	-1,	16,	38,	20,	-1,	-1,	52,	-1,	61,	-1,	-1,	58,	-1,	4,	46,	39,	5,	34,	25,	48,	-1,	37,	30,	44,	63,	57,	-1,	-1,	45,	64,	-1,	-1,	-1,	-1,	-1,	32,	41,	-1,	60,	-1,	36,	-1,	-1,	19,	-1,	15,	62,	-1,	22,	-1,	-1,	2,	49,	-1,	-1,	-1,	53,	6,	-1,	28,	59,	-1,	-1|
41,	34,	-1,	33,	32,	-1,	62,	-1,	51,	-1,	-1,	31,	10,	26,	14,	42,	56,	-1,	21,	57,	-1,	-1,	61,	-1,	28,	-1,	-1,	39,	50,	-1,	49,	1,	-1,	-1,	40,	-1,	-1,	-1,	-1,	-1,	-1,	-1,	-1,	17,	-1,	18,	52,	-1,	6,	-1,	-1,	37,	45,	-1,	13,	8,	16,	58,	35,	63,	-1,	47,	19,	-1|
-1,	8,	-1,	-1,	18,	57,	-1,	13,	-1,	20,	30,	-1,	-1,	53,	-1,	-1,	-1,	-1,	49,	55,	-1,	-1,	-1,	-1,	-1,	-1,	-1,	-1,	11,	38,	-1,	36,	-1,	23,	-1,	25,	-1,	-1,	-1,	-1,	27,	-1,	63,	-1,	4,	-1,	-1,	5,	59,	-1,	14,	44,	-1,	58,	-1,	-1,	33,	48,	-1,	32,	9,	-1,	34,	-1|
-1,	-1,	1,	-1,	-1,	60,	26,	-1,	40,	2,	-1,	49,	-1,	41,	-1,	17,	-1,	-1,	-1,	-1,	58,	-1,	-1,	-1,	48,	-1,	-1,	47,	-1,	-1,	-1,	21,	6,	53,	-1,	43,	20,	30,	64,	28,	-1,	56,	-1,	-1,	9,	-1,	38,	7,	57,	-1,	46,	19,	-1,	24,	61,	10,	-1,	-1,	18,	-1,	62,	-1,	14,	-1|
-1,	-1,	-1,	39,	59,	24,	-1,	-1,	-1,	36,	56,	-1,	63,	-1,	9,	22,	-1,	10,	-1,	60,	-1,	41,	15,	64,	34,	-1,	-1,	-1,	23,	-1,	-1,	52,	8,	-1,	13,	16,	-1,	-1,	46,	-1,	31,	21,	35,	-1,	30,	45,	-1,	-1,	54,	20,	25,	32,	-1,	-1,	48,	-1,	29,	-1,	-1,	42,	-1,	1,	37,	-1|];
