sudoku-ls/benchmarks_LEQ/INST_64x64/50/inst64x64_50_32.txt
8
1
16	-1	-1	36	43	40	-1	-1	21	46	2	25	-1	-1	8	37	-1	-1	58	-1	5	32	-1	-1	26	-1	-1	-1	22	-1	-1	60	-1	31	6	13	62	7	-1	56	-1	47	3	-1	11	-1	30	-1	-1	29	42	23	4	-1	-1	44	28	-1	39	34	38	-1	-1	-1
-1	57	47	10	49	37	-1	35	-1	38	-1	-1	29	-1	-1	-1	-1	25	-1	4	28	39	62	20	-1	1	7	27	56	34	42	14	-1	5	-1	-1	-1	-1	-1	46	-1	-1	-1	-1	-1	-1	32	-1	-1	18	-1	-1	-1	-1	6	13	-1	-1	21	8	-1	15	61	53
-1	17	45	-1	-1	53	-1	39	19	47	26	22	-1	-1	-1	31	35	15	30	-1	-1	27	-1	8	2	55	32	13	-1	-1	36	59	-1	-1	42	-1	-1	-1	-1	-1	58	48	-1	21	-1	23	-1	-1	-1	64	-1	-1	-1	-1	-1	5	1	9	-1	29	40	-1	-1	24
25	-1	24	27	-1	-1	52	-1	-1	58	34	-1	14	-1	45	43	26	16	-1	56	13	31	36	-1	19	-1	-1	-1	53	49	28	-1	-1	-1	-1	-1	21	23	44	4	-1	61	-1	-1	64	-1	-1	40	47	30	-1	-1	-1	-1	37	-1	-1	-1	5	-1	2	-1	12	-1
50	-1	-1	-1	-1	8	-1	31	-1	53	42	-1	-1	-1	18	4	40	49	19	-1	46	1	-1	48	12	30	24	35	21	39	63	62	64	-1	15	-1	-1	-1	47	-1	5	57	9	-1	20	-1	-1	-1	22	-1	58	-1	-1	-1	-1	36	54	7	-1	-1	-1	3	60	44
-1	38	34	19	54	42	20	58	55	17	-1	35	48	13	41	15	45	59	-1	-1	50	24	10	61	40	-1	4	-1	-1	-1	46	-1	28	1	-1	-1	-1	14	-1	57	39	-1	-1	-1	-1	-1	-1	-1	16	-1	-1	-1	51	21	25	9	-1	26	-1	-1	-1	32	36	-1
-1	28	12	-1	-1	-1	-1	46	-1	-1	62	30	-1	16	33	-1	-1	-1	11	-1	-1	23	-1	21	61	-1	-1	29	44	51	57	-1	-1	19	25	-1	-1	-1	-1	-1	-1	-1	38	-1	6	-1	35	31	24	-1	45	1	39	40	-1	15	-1	10	-1	-1	63	27	49	52
11	30	62	32	7	-1	-1	1	-1	12	57	61	-1	-1	-1	-1	33	60	-1	-1	-1	-1	22	-1	38	64	-1	-1	-1	-1	47	15	-1	-1	41	-1	-1	-1	-1	40	-1	13	-1	2	-1	-1	19	45	34	35	-1	55	46	50	-1	28	-1	42	58	-1	-1	-1	51	-1
57	45	-1	20	-1	-1	64	-1	16	55	-1	-1	17	25	-1	-1	48	-1	-1	-1	-1	-1	-1	-1	-1	-1	10	-1	-1	6	23	30	-1	-1	-1	47	1	15	43	35	28	-1	-1	24	59	-1	-1	4	-1	2	-1	-1	-1	-1	14	-1	53	62	31	49	7	61	-1	18
-1	18	-1	-1	33	19	29	-1	-1	5	9	20	-1	-1	49	39	14	31	-1	17	26	36	-1	-1	-1	-1	62	-1	-1	53	58	-1	52	-1	-1	21	27	61	42	-1	40	-1	30	44	47	-1	8	-1	-1	63	51	-1	12	45	-1	-1	-1	60	-1	10	-1	-1	-1	-1
-1	39	-1	48	23	22	41	26	34	40	-1	-1	46	61	6	2	58	12	-1	44	-1	-1	51	-1	29	-1	36	25	35	43	-1	-1	-1	49	-1	24	10	-1	53	-1	-1	3	-1	9	-1	-1	-1	56	-1	19	31	-1	-1	-1	-1	50	-1	21	45	-1	-1	37	5	59
-1	-1	30	-1	62	36	5	-1	-1	-1	-1	-1	-1	29	-1	-1	-1	35	52	24	60	10	-1	-1	-1	19	42	34	15	9	-1	55	-1	-1	-1	-1	-1	-1	-1	-1	48	-1	2	12	7	-1	18	-1	-1	-1	-1	22	64	20	-1	-1	-1	50	8	-1	51	-1	38	-1
15	-1	63	43	-1	54	42	-1	7	-1	60	26	47	-1	-1	38	34	20	-1	-1	39	4	-1	-1	31	-1	8	-1	-1	14	-1	50	5	-1	56	44	-1	-1	-1	-1	55	-1	19	51	-1	35	36	-1	49	53	-1	-1	-1	-1	32	48	-1	16	-1	-1	-1	-1	29	28
-1	-1	2	31	27	-1	24	-1	58	28	36	18	42	-1	48	-1	-1	53	-1	-1	-1	21	-1	-1	-1	-1	47	22	33	-1	-1	-1	14	51	11	-1	-1	-1	62	8	57	60	-1	29	10	15	-1	39	-1	-1	-1	-1	-1	13	16	-1	-1	-1	-1	9	55	46	-1	-1
-1	-1	-1	51	-1	58	-1	12	-1	45	15	19	52	-1	-1	57	-1	22	28	1	-1	-1	-1	11	-1	2	-1	-1	-1	61	60	48	-1	36	46	-1	25	-1	18	-1	-1	31	-1	-1	23	63	-1	38	33	7	37	-1	24	8	-1	-1	-1	35	14	-1	34	43	-1	39
-1	25	-1	60	46	52	3	-1	8	24	-1	-1	-1	12	10	-1	-1	41	-1	42	55	61	30	-1	-1	-1	45	-1	7	57	44	-1	-1	50	4	-1	-1	28	-1	-1	21	62	-1	33	-1	64	53	-1	18	-1	-1	9	58	-1	-1	29	-1	36	-1	19	48	-1	2	56
30	-1	-1	62	29	49	14	-1	1	35	20	-1	12	-1	50	55	-1	44	26	-1	41	-1	60	-1	-1	34	56	31	58	15	5	-1	63	45	57	-1	13	39	-1	25	64	42	16	-1	18	-1	-1	-1	53	24	38	40	11	-1	51	-1	2	-1	59	-1	-1	-1	46	-1
-1	44	51	58	-1	31	-1	60	13	21	-1	17	-1	-1	43	63	11	57	4	-1	14	-1	-1	5	18	-1	55	48	-1	-1	-1	-1	-1	47	-1	59	-1	-1	12	62	46	54	15	-1	-1	-1	-1	-1	-1	33	-1	-1	-1	16	-1	-1	-1	-1	-1	-1	52	-1	30	-1
-1	55	-1	-1	4	-1	-1	15	-1	-1	-1	23	33	2	47	-1	53	30	46	27	31	-1	21	50	45	-1	61	36	63	-1	-1	37	-1	28	18	56	64	8	16	-1	34	-1	57	38	12	13	-1	20	19	-1	-1	54	-1	-1	22	-1	58	-1	42	-1	32	-1	35	-1
20	-1	6	41	-1	-1	-1	-1	-1	-1	51	-1	-1	14	-1	52	-1	17	-1	-1	10	-1	-1	-1	-1	24	49	28	-1	-1	-1	-1	-1	55	-1	37	30	32	-1	-1	50	-1	40	58	53	-1	-1	43	-1	59	-1	63	35	39	-1	23	-1	13	57	-1	-1	-1	-1	-1
37	-1	-1	54	-1	18	57	24	-1	-1	-1	-1	30	59	-1	-1	-1	-1	42	12	-1	49	-1	29	-1	22	-1	-1	62	-1	8	-1	35	-1	14	-1	-1	-1	-1	-1	-1	-1	39	-1	-1	-1	5	-1	10	-1	3	-1	1	56	31	-1	25	55	-1	-1	-1	-1	-1	-1
-1	46	53	35	63	56	32	-1	-1	-1	-1	-1	-1	-1	-1	-1	-1	19	-1	58	25	-1	59	37	16	-1	23	57	52	-1	-1	29	42	-1	-1	15	44	-1	6	10	-1	55	-1	41	-1	49	-1	21	-1	13	12	-1	-1	60	45	-1	11	-1	51	-1	54	-1	-1	5
-1	-1	36	61	5	-1	-1	47	-1	42	29	-1	-1	-1	-1	-1	-1	54	-1	7	51	-1	-1	-1	-1	-1	-1	-1	59	1	35	-1	-1	-1	49	-1	-1	50	4	-1	-1	14	10	-1	31	-1	-1	17	-1	-1	48	-1	27	-1	-1	-1	37	15	33	-1	-1	40	21	-1
-1	-1	59	50	64	28	-1	25	-1	-1	37	62	-1	9	-1	58	55	24	-1	20	-1	34	-1	-1	-1	13	-1	-1	-1	-1	-1	-1	1	52	-1	19	-1	22	33	21	30	45	-1	3	-1	26	-1	-1	-1	47	15	-1	-1	42	-1	57	-1	12	-1	17	-1	16	43	-1
5	61	26	-1	28	-1	37	-1	12	-1	16	44	21	43	2	35	24	18	27	38	-1	-1	17	34	57	-1	-1	10	-1	58	-1	-1	7	-1	-1	-1	-1	48	-1	64	-1	-1	-1	30	-1	-1	22	-1	-1	-1	8	-1	9	51	47	-1	-1	-1	-1	-1	20	-1	55	29
48	-1	-1	-1	-1	-1	36	-1	47	34	-1	40	-1	-1	29	51	-1	26	6	37	-1	-1	-1	-1	-1	-1	59	-1	-1	46	-1	54	23	16	-1	-1	-1	55	56	-1	45	12	31	61	-1	21	13	57	-1	-1	-1	-1	15	-1	-1	-1	32	-1	30	28	-1	44	50	19
19	-1	-1	44	3	32	-1	-1	-1	30	53	33	-1	-1	-1	-1	-1	40	36	49	57	25	-1	58	-1	-1	28	-1	-1	-1	-1	-1	-1	-1	8	12	-1	17	41	59	11	46	-1	-1	52	-1	-1	-1	-1	48	50	-1	-1	61	-1	31	-1	-1	9	-1	37	5	-1	-1
7	12	50	-1	-1	55	46	41	-1	-1	14	59	36	-1	32	-1	60	9	47	-1	-1	-1	-1	22	35	5	-1	61	3	-1	1	-1	49	-1	-1	10	19	-1	-1	42	-1	-1	18	-1	48	17	43	6	-1	52	64	57	-1	-1	-1	-1	15	-1	-1	51	16	53	-1	33
51	64	21	-1	-1	25	33	16	50	-1	58	-1	-1	48	-1	13	-1	4	-1	11	-1	-1	-1	-1	-1	-1	-1	-1	49	23	-1	-1	15	-1	28	32	36	-1	-1	18	19	-1	26	10	63	-1	34	37	1	45	43	-1	5	44	-1	-1	52	47	-1	12	46	8	42	6
49	56	-1	13	-1	34	-1	29	11	64	41	-1	28	-1	-1	19	12	-1	-1	46	21	-1	-1	63	27	44	-1	-1	37	48	-1	-1	-1	-1	-1	5	-1	24	-1	52	-1	-1	47	60	33	2	55	-1	-1	-1	-1	53	62	23	-1	-1	-1	-1	-1	38	-1	18	-1	-1
-1	31	-1	47	30	-1	38	-1	-1	-1	7	-1	5	42	25	62	44	-1	61	-1	-1	59	-1	-1	-1	56	15	18	29	-1	34	12	-1	-1	-1	1	6	-1	-1	-1	-1	-1	-1	4	36	-1	-1	-1	-1	28	-1	-1	33	19	-1	-1	24	-1	-1	14	-1	-1	58	22
-1	20	27	11	-1	-1	-1	-1	10	31	-1	-1	-1	-1	37	-1	54	-1	-1	-1	-1	-1	23	-1	36	8	-1	4	-1	-1	33	16	-1	30	61	60	47	-1	-1	53	32	-1	-1	1	5	-1	51	-1	-1	-1	13	-1	14	-1	-1	49	21	-1	-1	3	17	-1	39	-1
-1	22	32	25	-1	35	4	56	17	14	8	-1	-1	-1	-1	-1	-1	-1	-1	-1	47	-1	-1	-1	-1	-1	44	55	45	21	43	-1	-1	-1	9	53	-1	59	-1	-1	20	-1	49	31	-1	-1	64	28	-1	-1	27	-1	48	-1	-1	-1	-1	-1	-1	54	24	-1	-1	-1
24	23	-1	-1	-1	-1	28	17	-1	51	-1	-1	31	52	-1	32	-1	37	54	59	-1	-1	-1	43	22	47	5	26	-1	36	-1	-1	38	-1	-1	50	-1	-1	-1	-1	14	-1	53	-1	25	-1	3	-1	8	-1	49	39	6	-1	-1	41	45	-1	55	-1	58	64	4	62
52	21	46	-1	-1	-1	61	-1	-1	43	-1	12	-1	-1	20	-1	-1	-1	-1	10	-1	-1	-1	1	-1	-1	3	24	-1	-1	-1	-1	33	-1	47	45	-1	2	-1	-1	15	-1	7	-1	-1	59	-1	26	-1	9	63	-1	18	-1	-1	-1	-1	-1	-1	5	60	-1	-1	50
-1	-1	-1	-1	-1	50	-1	14	-1	-1	-1	-1	-1	54	-1	45	19	-1	35	16	9	6	64	31	-1	48	-1	-1	-1	-1	13	-1	30	-1	-1	-1	57	-1	24	36	-1	-1	-1	43	-1	-1	-1	42	38	-1	62	59	-1	-1	3	61	56	-1	47	7	-1	-1	-1	15
6	58	64	37	-1	-1	-1	27	30	59	28	-1	55	21	63	-1	38	-1	51	32	34	-1	-1	56	1	-1	19	-1	-1	-1	-1	61	22	-1	54	-1	-1	-1	-1	-1	2	-1	50	36	-1	5	46	-1	45	57	33	-1	20	-1	-1	25	-1	-1	-1	-1	-1	17	16	42
-1	-1	19	-1	-1	-1	39	-1	44	-1	-1	-1	26	56	15	61	41	-1	7	-1	53	-1	29	57	9	-1	-1	38	18	35	-1	46	17	13	20	3	42	-1	10	5	-1	-1	-1	45	62	30	-1	-1	-1	-1	36	16	-1	-1	4	-1	14	-1	25	-1	-1	49	22	32
-1	-1	-1	34	42	-1	60	-1	48	9	-1	-1	-1	-1	-1	25	-1	-1	-1	52	-1	26	24	-1	-1	32	33	-1	-1	-1	-1	-1	41	64	-1	14	37	-1	55	29	51	35	61	47	-1	19	54	12	50	-1	28	-1	30	-1	10	-1	27	18	-1	-1	1	23	-1	-1
18	-1	13	29	-1	59	31	5	-1	-1	64	36	-1	37	62	-1	-1	11	-1	45	4	-1	2	-1	-1	-1	60	-1	-1	56	52	25	43	32	51	28	61	-1	1	-1	10	33	-1	-1	24	38	58	-1	-1	44	-1	42	53	26	-1	19	-1	-1	48	35	6	-1	-1	9
3	49	57	-1	-1	2	15	-1	-1	-1	-1	-1	53	39	38	12	50	43	64	54	8	30	1	-1	23	40	29	-1	-1	-1	37	-1	-1	-1	7	27	-1	-1	51	13	-1	22	-1	5	-1	-1	17	-1	-1	-1	21	-1	63	-1	-1	-1	47	32	20	-1	-1	34	41	16
-1	-1	-1	-1	-1	-1	7	-1	-1	-1	-1	46	15	-1	40	-1	36	-1	20	-1	24	55	-1	27	-1	58	30	-1	-1	-1	2	44	-1	-1	50	9	-1	-1	-1	63	23	38	45	48	26	-1	1	-1	-1	51	-1	35	16	-1	-1	14	-1	61	-1	-1	59	-1	-1	11
1	-1	-1	5	-1	-1	-1	64	-1	6	52	-1	-1	-1	-1	54	25	-1	-1	22	49	-1	9	59	-1	57	63	-1	-1	-1	-1	-1	21	-1	-1	4	38	12	-1	14	29	32	46	-1	-1	34	44	-1	56	-1	24	-1	41	-1	15	-1	60	28	-1	-1	33	-1	-1	17
-1	-1	-1	-1	50	-1	-1	34	57	-1	1	-1	8	-1	-1	-1	61	58	-1	-1	-1	-1	-1	-1	32	-1	46	49	-1	12	25	9	40	43	53	2	48	-1	5	6	13	-1	-1	28	21	-1	11	18	-1	39	-1	7	38	-1	62	-1	-1	-1	-1	30	-1	63	44	14
56	36	-1	42	51	-1	-1	-1	-1	-1	23	-1	35	24	7	-1	31	21	63	15	44	18	11	-1	-1	-1	14	-1	-1	-1	41	26	10	61	-1	39	46	-1	32	-1	-1	6	4	59	-1	20	-1	-1	52	37	54	17	-1	48	5	34	-1	-1	-1	-1	-1	50	-1	-1
46	41	-1	-1	61	-1	10	-1	42	-1	25	-1	59	17	-1	21	-1	-1	-1	26	38	60	13	4	62	-1	-1	5	48	22	-1	-1	-1	-1	-1	57	34	-1	-1	54	53	63	27	-1	-1	3	12	50	-1	-1	-1	47	-1	2	33	-1	36	52	1	43	49	-1	31	8
-1	-1	-1	59	45	39	-1	-1	-1	-1	22	-1	44	5	56	-1	57	47	48	-1	12	-1	-1	-1	-1	20	-1	60	-1	24	-1	-1	-1	42	35	-1	-1	31	-1	-1	7	-1	14	52	37	51	40	36	32	-1	30	-1	3	1	23	64	-1	27	-1	13	-1	21	54	10
-1	-1	38	26	58	-1	30	-1	63	-1	-1	51	50	-1	61	33	-1	46	40	2	-1	-1	-1	14	15	-1	39	56	10	18	17	-1	-1	41	-1	-1	-1	1	28	22	62	-1	-1	16	-1	9	-1	54	-1	-1	11	-1	19	-1	57	53	-1	24	7	64	25	-1	23	-1
62	-1	-1	16	26	-1	-1	63	61	-1	-1	-1	-1	28	58	36	9	55	-1	-1	22	57	3	-1	13	18	-1	-1	34	-1	-1	41	-1	21	33	23	49	-1	14	19	-1	-1	6	-1	-1	46	-1	52	25	-1	5	48	37	47	59	-1	-1	-1	32	15	-1	24	-1	1
-1	54	31	17	-1	27	48	-1	-1	-1	-1	-1	-1	-1	-1	-1	-1	-1	24	14	-1	-1	52	40	-1	37	-1	-1	-1	-1	-1	-1	-1	46	-1	63	-1	43	20	45	-1	5	32	55	1	-1	-1	-1	62	-1	-1	30	-1	-1	-1	-1	19	-1	-1	-1	39	-1	-1	25
60	-1	-1	-1	39	21	-1	-1	5	52	63	42	-1	-1	3	59	-1	2	-1	-1	32	-1	49	10	24	33	26	58	19	-1	4	22	-1	-1	36	55	40	53	57	30	17	-1	44	54	-1	62	-1	-1	64	16	1	-1	-1	-1	-1	-1	48	46	-1	37	14	11	-1	-1
-1	4	3	-1	-1	41	1	53	-1	-1	12	21	19	51	-1	10	20	-1	45	-1	-1	-1	-1	-1	-1	-1	16	42	-1	52	-1	-1	-1	39	24	-1	22	54	8	32	-1	64	37	-1	-1	40	-1	-1	60	15	9	-1	-1	-1	58	27	-1	-1	28	-1	31	-1	59	49
22	43	44	46	-1	45	-1	57	-1	33	-1	7	2	38	13	-1	-1	-1	-1	61	1	-1	-1	-1	-1	59	-1	-1	-1	-1	-1	-1	-1	10	52	41	-1	18	29	-1	60	24	36	-1	-1	11	39	34	-1	49	-1	56	-1	55	-1	51	50	40	-1	-1	-1	-1	-1	-1
42	-1	-1	-1	14	-1	-1	61	-1	48	55	-1	-1	46	34	-1	-1	64	-1	18	63	13	54	-1	-1	-1	-1	-1	-1	-1	-1	5	-1	25	-1	51	-1	-1	11	-1	35	-1	-1	-1	-1	-1	59	-1	-1	-1	-1	-1	32	17	-1	-1	9	8	56	21	-1	-1	-1	-1
-1	-1	-1	8	52	-1	-1	59	-1	49	6	-1	-1	-1	30	-1	-1	-1	60	-1	-1	-1	42	25	7	54	-1	15	-1	-1	-1	-1	48	-1	-1	31	17	16	-1	-1	-1	-1	-1	23	-1	-1	57	-1	-1	-1	4	-1	28	-1	-1	-1	-1	29	-1	18	5	-1	3	-1
-1	47	5	-1	13	-1	-1	-1	26	29	40	9	37	-1	-1	-1	17	38	31	-1	33	11	58	-1	49	-1	-1	-1	30	3	-1	-1	34	-1	59	-1	28	-1	7	-1	-1	16	-1	-1	14	48	21	-1	46	-1	-1	50	-1	22	8	39	-1	2	-1	60	53	52	-1	-1
-1	11	-1	-1	47	-1	-1	-1	29	8	-1	57	45	-1	-1	24	59	32	-1	-1	-1	-1	63	-1	-1	27	-1	20	-1	-1	-1	51	-1	-1	12	-1	-1	56	-1	61	-1	-1	-1	-1	-1	-1	37	48	15	21	60	-1	-1	4	-1	42	7	-1	-1	22	13	-1	-1	-1
-1	-1	14	-1	-1	29	51	-1	-1	-1	-1	-1	-1	-1	-1	-1	-1	7	-1	-1	45	53	-1	-1	-1	42	54	-1	-1	-1	-1	8	-1	57	-1	-1	3	21	26	24	61	-1	-1	-1	-1	10	33	2	5	-1	-1	31	56	-1	-1	16	43	20	52	11	-1	-1	-1	41
61	-1	42	56	-1	-1	-1	45	-1	-1	21	-1	-1	62	-1	-1	13	6	-1	-1	-1	16	14	44	37	35	31	-1	-1	2	30	-1	54	-1	-1	22	-1	-1	52	39	-1	-1	-1	-1	-1	47	28	3	-1	17	-1	43	34	-1	64	-1	-1	5	-1	4	-1	36	27	-1
9	10	16	38	-1	-1	40	52	-1	61	13	-1	58	-1	4	46	-1	5	-1	25	48	3	-1	-1	44	-1	57	-1	14	45	64	24	55	35	-1	-1	-1	-1	-1	60	54	36	-1	-1	19	43	15	62	7	-1	-1	-1	-1	49	-1	-1	-1	53	6	56	-1	-1	8	-1
41	34	25	33	-1	-1	-1	54	-1	-1	-1	31	-1	26	14	-1	-1	36	-1	-1	11	-1	61	-1	-1	-1	-1	-1	-1	-1	-1	1	2	-1	-1	-1	9	-1	-1	44	12	-1	29	-1	-1	-1	-1	53	-1	27	55	-1	-1	-1	-1	8	-1	-1	35	63	23	47	19	-1
31	8	-1	21	-1	-1	-1	-1	6	-1	-1	64	54	-1	19	16	42	-1	-1	55	2	35	28	-1	56	29	-1	-1	11	-1	12	36	51	-1	-1	25	45	-1	37	17	27	40	63	46	4	22	41	-1	59	-1	-1	44	52	58	39	-1	33	-1	-1	-1	9	-1	-1	-1
4	5	-1	23	37	60	26	-1	40	-1	-1	49	-1	-1	52	17	51	-1	50	-1	-1	-1	-1	33	48	-1	13	-1	55	-1	16	-1	6	-1	-1	-1	20	30	-1	-1	8	-1	34	-1	9	32	-1	-1	-1	11	46	-1	-1	-1	-1	-1	39	-1	18	-1	62	-1	14	54
-1	27	49	-1	-1	24	2	-1	28	-1	56	38	63	7	-1	22	4	-1	-1	60	19	-1	-1	64	34	61	-1	-1	-1	17	6	-1	-1	18	-1	16	11	5	46	33	31	-1	-1	57	-1	-1	-1	-1	-1	-1	25	-1	47	-1	48	-1	-1	51	50	42	-1	-1	37	55
64 
10 29 27 58
27 60 36 62
53 45 40 2
7 41 39 38
36 12 62 48
46 50 53 25
10 4 49 6
47 37 30 23
22 38 19 22
13 54 44 42
26 36 2 15
38 49 13 34
55 39 39 13
55 54 35 26
4 44 39 54
46 35 40 10
2 53 13 5
46 10 58 23
9 33 56 48
28 23 31 34
38 61 60 64
13 48 36 53
28 14 59 42
44 4 18 13
19 9 32 50
7 36 44 38
40 44 27 13
54 43 17 46
6 1 19 47
35 58 52 4
20 60 6 26
64 52 18 29
13 62 45 38
51 54 48 23
58 51 24 23
57 39 54 49
36 41 35 56
26 13 3 55
46 18 24 29
38 5 49 50
7 59 50 9
35 22 20 2
39 56 49 41
57 41 28 42
54 45 21 60
41 56 9 28
12 64 38 56
58 5 38 6
58 36 54 7
38 20 33 16
35 52 2 42
42 25 25 4
53 51 29 27
11 45 2 46
7 23 47 31
28 55 35 37
4 60 63 49
2 25 50 62
1 39 29 56
26 2 41 50
30 61 21 18
42 18 53 19
40 25 34 39
53 63 6 61
